clingo version 5.4.0
Reading from stdin
Solving...
SATISFIABLE

Models       : 1+
Calls        : 1
Time         : 5039.268s (Solving: 5026.01s 1st Model: 5026.01s Unsat: 0.00s)
CPU Time     : 5015.938s
